words_hard_train/5714.qaiger
aag 86 17 0 1 69
2
4
8
12
16
20
24
32
34
48
50
54
58
62
76
96
146
173
6 3 5
10 6 9
14 10 13
18 14 17
22 18 21
26 22 25
28 23 24
30 27 29
36 33 35
38 30 36
40 19 20
42 41 23
44 11 12
46 45 15
52 49 51
56 52 55
60 56 59
64 61 62
66 60 63
68 65 67
70 47 69
72 15 16
74 73 19
78 67 76
80 66 77
82 79 81
84 75 83
86 71 85
88 53 54
90 89 57
92 3 50
94 93 53
98 96 48
100 2 51
102 98 101
104 94 103
106 2 4
108 107 7
110 104 108
112 91 111
114 105 109
116 113 115
118 7 8
120 119 11
122 57 58
124 123 61
126 121 125
128 116 127
130 120 124
132 129 131
134 46 68
136 132 135
138 86 137
140 74 82
142 139 141
144 42 143
148 80 147
150 144 148
152 38 151
154 31 37
156 153 155
158 145 81
160 158 146
162 43 142
164 162 149
166 161 165
168 156 166
170 151 154
172 169 171
i0 2 y2[1]
i1 2 y2[2]
i2 2 y2[3]
i3 2 y2[4]
i4 2 y2[5]
i5 2 y2[6]
i6 2 y2[7]
i7 1 x1[7]
i8 2 y1[0]
i9 1 x1[0]
i10 1 x1[1]
i11 1 x1[2]
i12 1 x1[3]
i13 1 x1[4]
i14 1 x1[5]
i15 2 y2[0]
i16 1 x1[6]
o0 bv[0]
c
simplified
  >=
    subtract
      1
      2 y2
    or
      << 7
        2 y1
      1 x1
