words_hard_train/5714.qaiger.qdimacs
p cnf 86 208
a 38 73 16 24 25 27 29 31 0
e 1 2 3 4 5 6 7 8 9 10 11 12 13 14 15 17 18 19 20 21 22 23 26 28 30 32 33 34 35 36 37 39 40 41 42 43 44 45 46 47 48 49 50 51 52 53 54 55 56 57 58 59 60 61 62 63 64 65 66 67 68 69 70 71 72 74 75 76 77 78 79 80 81 82 83 84 85 86 0
1 2 3 0
-1 -3 0
-2 -3 0
-3 4 5 0
3 -5 0
-4 -5 0
-5 6 7 0
5 -7 0
-6 -7 0
-7 8 9 0
7 -9 0
-8 -9 0
-9 10 11 0
9 -11 0
-10 -11 0
-11 12 13 0
11 -13 0
-12 -13 0
11 -12 14 0
-11 -14 0
12 -14 0
13 14 15 0
-13 -15 0
-14 -15 0
16 17 18 0
-16 -18 0
-17 -18 0
-15 -18 19 0
15 -19 0
18 -19 0
9 -10 20 0
-9 -20 0
10 -20 0
20 11 21 0
-20 -21 0
-11 -21 0
5 -6 22 0
-5 -22 0
6 -22 0
22 7 23 0
-22 -23 0
-7 -23 0
24 25 26 0
-24 -26 0
-25 -26 0
-26 27 28 0
26 -28 0
-27 -28 0
-28 29 30 0
28 -30 0
-29 -30 0
30 -31 32 0
-30 -32 0
31 -32 0
-30 31 33 0
30 -33 0
-31 -33 0
32 33 34 0
-32 -34 0
-33 -34 0
23 34 35 0
-23 -35 0
-34 -35 0
7 -8 36 0
-7 -36 0
8 -36 0
36 9 37 0
-36 -37 0
-9 -37 0
33 -38 39 0
-33 -39 0
38 -39 0
-33 38 40 0
33 -40 0
-38 -40 0
39 40 41 0
-39 -41 0
-40 -41 0
37 41 42 0
-37 -42 0
-41 -42 0
35 42 43 0
-35 -43 0
-42 -43 0
26 -27 44 0
-26 -44 0
27 -44 0
44 28 45 0
-44 -45 0
-28 -45 0
1 -25 46 0
-1 -46 0
25 -46 0
46 26 47 0
-46 -47 0
-26 -47 0
-48 -24 49 0
48 -49 0
24 -49 0
-1 25 50 0
1 -50 0
-25 -50 0
-49 50 51 0
49 -51 0
-50 -51 0
-47 51 52 0
47 -52 0
-51 -52 0
-1 -2 53 0
1 -53 0
2 -53 0
53 3 54 0
-53 -54 0
-3 -54 0
-52 -54 55 0
52 -55 0
54 -55 0
45 55 56 0
-45 -56 0
-55 -56 0
52 54 57 0
-52 -57 0
-54 -57 0
56 57 58 0
-56 -58 0
-57 -58 0
3 -4 59 0
-3 -59 0
4 -59 0
59 5 60 0
-59 -60 0
-5 -60 0
28 -29 61 0
-28 -61 0
29 -61 0
61 30 62 0
-61 -62 0
-30 -62 0
60 62 63 0
-60 -63 0
-62 -63 0
-58 63 64 0
58 -64 0
-63 -64 0
-60 -62 65 0
60 -65 0
62 -65 0
64 65 66 0
-64 -66 0
-65 -66 0
-23 -34 67 0
23 -67 0
34 -67 0
-66 67 68 0
66 -68 0
-67 -68 0
-43 68 69 0
43 -69 0
-68 -69 0
-37 -41 70 0
37 -70 0
41 -70 0
69 70 71 0
-69 -71 0
-70 -71 0
-21 71 72 0
21 -72 0
-71 -72 0
-40 73 74 0
40 -74 0
-73 -74 0
-72 -74 75 0
72 -75 0
74 -75 0
-19 75 76 0
19 -76 0
-75 -76 0
15 18 77 0
-15 -77 0
-18 -77 0
76 77 78 0
-76 -78 0
-77 -78 0
72 40 79 0
-72 -79 0
-40 -79 0
-79 -73 80 0
79 -80 0
73 -80 0
21 -71 81 0
-21 -81 0
71 -81 0
-81 74 82 0
81 -82 0
-74 -82 0
80 82 83 0
-80 -83 0
-82 -83 0
-78 -83 84 0
78 -84 0
83 -84 0
75 -77 85 0
-75 -85 0
77 -85 0
84 85 86 0
-84 -86 0
-85 -86 0
-86 0
